\ Model TDVRP2
\ LP format - for model browsing. Use MPS format to capture full model detail.
Minimize
  132.8680039889129 xt[4,0] + 587.2729762589211 xt[4,9]
   + 48.57686317580032 xt[5,1] + 424.6812851539381 xt[8,0]
   + 582.7097768529322 xt[5,10] + 985.9965063467539 xt[8,9]
   + 895.7965174524804 xt[10,6] + 985.9965063467539 xt[9,8]
   + 145.1537931574622 xt[0,5] + 166.7094838454017 xt[6,2]
   + 259.9483321969964 xt[7,1] + 855.9078954420268 xt[7,10]
   + 158.2689134985072 xt[4,2] + 167.9496190766769 xt[3,6]
   + 207.4042412006068 xt[5,3] + 277.9110660193282 xt[8,2]
   + 579.3719116767819 xt[9,1] + 63.91054977074366 xt[9,10]
   + 280.425028533475 xt[0,7] + 158.2689134985072 xt[2,4]
   + 425.4426790532385 xt[1,8] + 297.3588767802235 xt[6,4]
   + 137.0481488674677 xt[7,3] + 277.1936283538997 xt[3,8]
   + 406.6757274536993 xt[8,4] + 741.9289859386839 xt[9,3]
   + 637.1959708409979 xt[0,9] + 628.3332667971658 xt[1,10]
   + 291.4702228633341 xt[7,5] + 162.7460835780647 xt[3,1]
   + 790.1078106410479 xt[3,10] + 291.4702228633341 xt[5,7]
   + 535.0686654140793 xt[9,5] + 147.5292600130578 xt[0,2]
   + 162.7460835780647 xt[1,3] + 145.1537931574622 xt[5,0]
   + 535.0686654140793 xt[5,9] + 814.4526706568111 xt[9,7]
   + 1027.014902842207 xt[10,8] + 48.57686317580032 xt[1,5]
   + 284.693887486188 xt[6,1] + 280.425028533475 xt[7,0]
   + 814.4526706568111 xt[7,9] + 207.4042412006068 xt[3,5]
   + 207.5612509983504 xt[5,2] + 637.1959708409979 xt[9,0]
   + 628.3332667971658 xt[10,1] + 259.9483321969964 xt[1,7]
   + 166.7094838454017 xt[2,6] + 138.2719948651919 xt[7,2]
   + 137.0481488674677 xt[3,7] + 54.01556871866188 xt[5,4]
   + 297.3588767802235 xt[4,6] + 741.995883228476 xt[9,2]
   + 328.4625295220143 xt[8,6] + 790.1078106410479 xt[10,3]
   + 103.3503664241147 xt[1,0] + 579.3719116767819 xt[1,9]
   + 277.9110660193282 xt[2,8] + 237.7005477486316 xt[7,4]
   + 328.4625295220143 xt[6,8] + 148.4002971695146 xt[3,0]
   + 741.9289859386839 xt[3,9] + 333.1260409154482 xt[5,6]
   + 406.6757274536993 xt[4,8] + 582.7097768529322 xt[10,5]
   + 162.7575754058746 xt[1,2] + 132.8680039889129 xt[0,4]
   + 162.7575754058746 xt[2,1] + 790.2519663322532 xt[2,10]
   + 895.7965174524804 xt[6,10] + 1.414171135331015 xt[3,2]
   + 36.17531473256111 xt[4,1] + 633.7438628657493 xt[4,10]
   + 425.4426790532385 xt[8,1] + 1027.014902842207 xt[8,10]
   + 855.9078954420268 xt[10,7] + 36.17531473256111 xt[1,4]
   + 204.6809343050827 xt[0,6] + 1.414171135331015 xt[2,3]
   + 167.9496190766769 xt[6,3] + 157.9434273529525 xt[3,4]
   + 157.9434273529525 xt[4,3] + 277.1936283538997 xt[8,3]
   + 691.1613363868012 xt[10,0] + 63.91054977074366 xt[10,9]
   + 284.693887486188 xt[1,6] + 424.6812851539381 xt[0,8]
   + 207.5612509983504 xt[2,5] + 333.1260409154482 xt[6,5]
   + 54.01556871866188 xt[4,5] + 460.6889796511297 xt[8,5]
   + 790.2519663322532 xt[10,2] + 587.2729762589211 xt[9,4]
   + 103.3503664241147 xt[0,1] + 691.1613363868012 xt[0,10]
   + 138.2719948651919 xt[2,7] + 266.1164632261564 xt[6,7]
   + 266.1164632261564 xt[7,6] + 237.7005477486316 xt[4,7]
   + 460.6889796511297 xt[5,8] + 171.5822977465865 xt[8,7]
   + 633.7438628657493 xt[10,4] + 841.4334586287907 xt[9,6]
   + 148.4002971695146 xt[0,3] + 147.5292600130578 xt[2,0]
   + 741.995883228476 xt[2,9] + 204.6809343050827 xt[6,0]
   + 841.4334586287907 xt[6,9] + 171.5822977465865 xt[7,8] + 199 xd[4,0]
   + 875 xd[4,9] + 76 xd[5,1] + 573 xd[8,0] + 883 xd[5,10] + 1443 xd[8,9]
   + 1388 xd[10,6] + 1443 xd[9,8] + 228 xd[0,5] + 258 xd[6,2] + 356 xd[7,1]
   + 1266 xd[7,10] + 244 xd[4,2] + 260 xd[3,6] + 315 xd[5,3] + 377 xd[8,2]
   + 872 xd[9,1] + 101 xd[9,10] + 369 xd[0,7] + 244 xd[2,4] + 597 xd[1,8]
   + 472 xd[6,4] + 181 xd[7,3] + 376 xd[3,8] + 578 xd[8,4] + 1115 xd[9,3]
   + 980 xd[0,9] + 956 xd[1,10] + 408 xd[7,5] + 243 xd[3,1] + 1198 xd[3,10]
   + 408 xd[5,7] + 801 xd[9,5] + 197 xd[0,2] + 243 xd[1,3] + 228 xd[5,0]
   + 801 xd[5,9] + 1192 xd[9,7] + 1516 xd[10,8] + 76 xd[1,5] + 451 xd[6,1]
   + 369 xd[7,0] + 1192 xd[7,9] + 315 xd[3,5] + 315 xd[5,2] + 980 xd[9,0]
   + 956 xd[10,1] + 356 xd[1,7] + 258 xd[2,6] + 182 xd[7,2] + 181 xd[3,7]
   + 76 xd[5,4] + 472 xd[4,6] + 1116 xd[9,2] + 435 xd[8,6] + 1198 xd[10,3]
   + 159 xd[1,0] + 872 xd[1,9] + 377 xd[2,8] + 332 xd[7,4] + 435 xd[6,8]
   + 198 xd[3,0] + 1115 xd[3,9] + 527 xd[5,6] + 578 xd[4,8] + 883 xd[10,5]
   + 243 xd[1,2] + 199 xd[0,4] + 243 xd[2,1] + 1199 xd[2,10]
   + 1388 xd[6,10] + 2 xd[3,2] + 49 xd[4,1] + 956 xd[4,10] + 597 xd[8,1]
   + 1516 xd[8,10] + 1266 xd[10,7] + 49 xd[1,4] + 317 xd[0,6] + 2 xd[2,3]
   + 260 xd[6,3] + 243 xd[3,4] + 243 xd[4,3] + 376 xd[8,3] + 1070 xd[10,0]
   + 101 xd[10,9] + 451 xd[1,6] + 573 xd[0,8] + 315 xd[2,5] + 527 xd[6,5]
   + 76 xd[4,5] + 655 xd[8,5] + 1199 xd[10,2] + 875 xd[9,4] + 159 xd[0,1]
   + 1070 xd[0,10] + 182 xd[2,7] + 382 xd[6,7] + 382 xd[7,6] + 332 xd[4,7]
   + 655 xd[5,8] + 250 xd[8,7] + 956 xd[10,4] + 1297 xd[9,6] + 198 xd[0,3]
   + 197 xd[2,0] + 1116 xd[2,9] + 317 xd[6,0] + 1297 xd[6,9] + 250 xd[7,8]
Subject To
 C11: xt[0,5] + xt[0,7] + xt[0,9] + xt[0,2] + xt[0,4] + xt[0,6] + xt[0,8]
   + xt[0,1] + xt[0,10] + xt[0,3] <= 8
 C12: xd[0,5] + xd[0,7] + xd[0,9] + xd[0,2] + xd[0,4] + xd[0,6] + xd[0,8]
   + xd[0,1] + xd[0,10] + xd[0,3] <= 6
 C21: xt[4,0] + xt[8,0] + xt[5,0] + xt[7,0] + xt[9,0] + xt[1,0] + xt[3,0]
   + xt[10,0] + xt[2,0] + xt[6,0] <= 8
 C22: xd[4,0] + xd[8,0] + xd[5,0] + xd[7,0] + xd[9,0] + xd[1,0] + xd[3,0]
   + xd[10,0] + xd[2,0] + xd[6,0] <= 6
 C3: xt[5,1] + xt[7,1] + xt[9,1] + xt[3,1] + xt[6,1] + xt[10,1] + xt[2,1]
   + xt[4,1] + xt[8,1] + xt[0,1] + xd[5,1] + xd[7,1] + xd[9,1] + xd[3,1]
   + xd[6,1] + xd[10,1] + xd[2,1] + xd[4,1] + xd[8,1] + xd[0,1] = 1
 C3: xt[6,2] + xt[4,2] + xt[8,2] + xt[0,2] + xt[5,2] + xt[7,2] + xt[9,2]
   + xt[1,2] + xt[3,2] + xt[10,2] + xd[6,2] + xd[4,2] + xd[8,2] + xd[0,2]
   + xd[5,2] + xd[7,2] + xd[9,2] + xd[1,2] + xd[3,2] + xd[10,2] = 1
 C3: xt[5,3] + xt[7,3] + xt[9,3] + xt[1,3] + xt[10,3] + xt[2,3] + xt[6,3]
   + xt[4,3] + xt[8,3] + xt[0,3] + xd[5,3] + xd[7,3] + xd[9,3] + xd[1,3]
   + xd[10,3] + xd[2,3] + xd[6,3] + xd[4,3] + xd[8,3] + xd[0,3] = 1
 C3: xt[2,4] + xt[6,4] + xt[8,4] + xt[5,4] + xt[7,4] + xt[0,4] + xt[1,4]
   + xt[3,4] + xt[9,4] + xt[10,4] + xd[2,4] + xd[6,4] + xd[8,4] + xd[5,4]
   + xd[7,4] + xd[0,4] + xd[1,4] + xd[3,4] + xd[9,4] + xd[10,4] = 1
 C3: xt[0,5] + xt[7,5] + xt[9,5] + xt[1,5] + xt[3,5] + xt[10,5] + xt[2,5]
   + xt[6,5] + xt[4,5] + xt[8,5] + xd[0,5] + xd[7,5] + xd[9,5] + xd[1,5]
   + xd[3,5] + xd[10,5] + xd[2,5] + xd[6,5] + xd[4,5] + xd[8,5] = 1
 C3: xt[10,6] + xt[3,6] + xt[2,6] + xt[4,6] + xt[8,6] + xt[5,6] + xt[0,6]
   + xt[1,6] + xt[7,6] + xt[9,6] + xd[10,6] + xd[3,6] + xd[2,6] + xd[4,6]
   + xd[8,6] + xd[5,6] + xd[0,6] + xd[1,6] + xd[7,6] + xd[9,6] = 1
 C3: xt[0,7] + xt[5,7] + xt[9,7] + xt[1,7] + xt[3,7] + xt[10,7] + xt[2,7]
   + xt[6,7] + xt[4,7] + xt[8,7] + xd[0,7] + xd[5,7] + xd[9,7] + xd[1,7]
   + xd[3,7] + xd[10,7] + xd[2,7] + xd[6,7] + xd[4,7] + xd[8,7] = 1
 C3: xt[9,8] + xt[1,8] + xt[3,8] + xt[10,8] + xt[2,8] + xt[6,8] + xt[4,8]
   + xt[0,8] + xt[5,8] + xt[7,8] + xd[9,8] + xd[1,8] + xd[3,8] + xd[10,8]
   + xd[2,8] + xd[6,8] + xd[4,8] + xd[0,8] + xd[5,8] + xd[7,8] = 1
 C3: xt[4,9] + xt[8,9] + xt[0,9] + xt[5,9] + xt[7,9] + xt[1,9] + xt[3,9]
   + xt[10,9] + xt[2,9] + xt[6,9] + xd[4,9] + xd[8,9] + xd[0,9] + xd[5,9]
   + xd[7,9] + xd[1,9] + xd[3,9] + xd[10,9] + xd[2,9] + xd[6,9] = 1
 C3: xt[5,10] + xt[7,10] + xt[9,10] + xt[1,10] + xt[3,10] + xt[2,10]
   + xt[6,10] + xt[4,10] + xt[8,10] + xt[0,10] + xd[5,10] + xd[7,10]
   + xd[9,10] + xd[1,10] + xd[3,10] + xd[2,10] + xd[6,10] + xd[4,10]
   + xd[8,10] + xd[0,10] = 1
 C4: xt[5,1] + xt[7,1] + xt[9,1] - xt[1,8] - xt[1,10] + xt[3,1] - xt[1,3]
   - xt[1,5] + xt[6,1] + xt[10,1] - xt[1,7] - xt[1,0] - xt[1,9] - xt[1,2]
   + xt[2,1] + xt[4,1] + xt[8,1] - xt[1,4] - xt[1,6] + xt[0,1] = 0
 C4: xt[6,2] + xt[4,2] + xt[8,2] - xt[2,4] + xt[0,2] + xt[5,2] - xt[2,6]
   + xt[7,2] + xt[9,2] - xt[2,8] + xt[1,2] - xt[2,1] - xt[2,10] + xt[3,2]
   - xt[2,3] - xt[2,5] + xt[10,2] - xt[2,7] - xt[2,0] - xt[2,9] = 0
 C4: - xt[3,6] + xt[5,3] + xt[7,3] - xt[3,8] + xt[9,3] - xt[3,1] - xt[3,10]
   + xt[1,3] - xt[3,5] - xt[3,7] + xt[10,3] - xt[3,0] - xt[3,9] - xt[3,2]
   + xt[2,3] + xt[6,3] - xt[3,4] + xt[4,3] + xt[8,3] + xt[0,3] = 0
 C4: - xt[4,0] - xt[4,9] - xt[4,2] + xt[2,4] + xt[6,4] + xt[8,4] + xt[5,4]
   - xt[4,6] + xt[7,4] - xt[4,8] + xt[0,4] - xt[4,1] - xt[4,10] + xt[1,4]
   + xt[3,4] - xt[4,3] - xt[4,5] + xt[9,4] - xt[4,7] + xt[10,4] = 0
 C4: - xt[5,1] - xt[5,10] + xt[0,5] - xt[5,3] + xt[7,5] - xt[5,7] + xt[9,5]
   - xt[5,0] - xt[5,9] + xt[1,5] + xt[3,5] - xt[5,2] - xt[5,4] - xt[5,6]
   + xt[10,5] + xt[2,5] + xt[6,5] + xt[4,5] + xt[8,5] - xt[5,8] = 0
 C4: xt[10,6] - xt[6,2] + xt[3,6] - xt[6,4] - xt[6,1] + xt[2,6] + xt[4,6]
   + xt[8,6] - xt[6,8] + xt[5,6] - xt[6,10] + xt[0,6] - xt[6,3] + xt[1,6]
   - xt[6,5] - xt[6,7] + xt[7,6] + xt[9,6] - xt[6,0] - xt[6,9] = 0
 C4: - xt[7,1] - xt[7,10] + xt[0,7] - xt[7,3] - xt[7,5] + xt[5,7] + xt[9,7]
   - xt[7,0] - xt[7,9] + xt[1,7] - xt[7,2] + xt[3,7] - xt[7,4] + xt[10,7]
   + xt[2,7] + xt[6,7] - xt[7,6] + xt[4,7] + xt[8,7] - xt[7,8] = 0
 C4: - xt[8,0] - xt[8,9] + xt[9,8] - xt[8,2] + xt[1,8] + xt[3,8] - xt[8,4]
   + xt[10,8] - xt[8,6] + xt[2,8] + xt[6,8] + xt[4,8] - xt[8,1] - xt[8,10]
   - xt[8,3] + xt[0,8] - xt[8,5] + xt[5,8] - xt[8,7] + xt[7,8] = 0
 C4: xt[4,9] + xt[8,9] - xt[9,8] - xt[9,1] - xt[9,10] - xt[9,3] + xt[0,9]
   - xt[9,5] + xt[5,9] - xt[9,7] + xt[7,9] - xt[9,0] - xt[9,2] + xt[1,9]
   + xt[3,9] + xt[10,9] - xt[9,4] - xt[9,6] + xt[2,9] + xt[6,9] = 0
 C4: xt[5,10] - xt[10,6] + xt[7,10] + xt[9,10] + xt[1,10] + xt[3,10]
   - xt[10,8] - xt[10,1] - xt[10,3] - xt[10,5] + xt[2,10] + xt[6,10]
   + xt[4,10] + xt[8,10] - xt[10,7] - xt[10,0] - xt[10,9] - xt[10,2]
   + xt[0,10] - xt[10,4] = 0
 C5: xd[5,1] + xd[7,1] + xd[9,1] - xd[1,8] - xd[1,10] + xd[3,1] - xd[1,3]
   - xd[1,5] + xd[6,1] + xd[10,1] - xd[1,7] - xd[1,0] - xd[1,9] - xd[1,2]
   + xd[2,1] + xd[4,1] + xd[8,1] - xd[1,4] - xd[1,6] + xd[0,1] = 0
 C5: xd[6,2] + xd[4,2] + xd[8,2] - xd[2,4] + xd[0,2] + xd[5,2] - xd[2,6]
   + xd[7,2] + xd[9,2] - xd[2,8] + xd[1,2] - xd[2,1] - xd[2,10] + xd[3,2]
   - xd[2,3] - xd[2,5] + xd[10,2] - xd[2,7] - xd[2,0] - xd[2,9] = 0
 C5: - xd[3,6] + xd[5,3] + xd[7,3] - xd[3,8] + xd[9,3] - xd[3,1] - xd[3,10]
   + xd[1,3] - xd[3,5] - xd[3,7] + xd[10,3] - xd[3,0] - xd[3,9] - xd[3,2]
   + xd[2,3] + xd[6,3] - xd[3,4] + xd[4,3] + xd[8,3] + xd[0,3] = 0
 C5: - xd[4,0] - xd[4,9] - xd[4,2] + xd[2,4] + xd[6,4] + xd[8,4] + xd[5,4]
   - xd[4,6] + xd[7,4] - xd[4,8] + xd[0,4] - xd[4,1] - xd[4,10] + xd[1,4]
   + xd[3,4] - xd[4,3] - xd[4,5] + xd[9,4] - xd[4,7] + xd[10,4] = 0
 C5: - xd[5,1] - xd[5,10] + xd[0,5] - xd[5,3] + xd[7,5] - xd[5,7] + xd[9,5]
   - xd[5,0] - xd[5,9] + xd[1,5] + xd[3,5] - xd[5,2] - xd[5,4] - xd[5,6]
   + xd[10,5] + xd[2,5] + xd[6,5] + xd[4,5] + xd[8,5] - xd[5,8] = 0
 C5: xd[10,6] - xd[6,2] + xd[3,6] - xd[6,4] - xd[6,1] + xd[2,6] + xd[4,6]
   + xd[8,6] - xd[6,8] + xd[5,6] - xd[6,10] + xd[0,6] - xd[6,3] + xd[1,6]
   - xd[6,5] - xd[6,7] + xd[7,6] + xd[9,6] - xd[6,0] - xd[6,9] = 0
 C5: - xd[7,1] - xd[7,10] + xd[0,7] - xd[7,3] - xd[7,5] + xd[5,7] + xd[9,7]
   - xd[7,0] - xd[7,9] + xd[1,7] - xd[7,2] + xd[3,7] - xd[7,4] + xd[10,7]
   + xd[2,7] + xd[6,7] - xd[7,6] + xd[4,7] + xd[8,7] - xd[7,8] = 0
 C5: - xd[8,0] - xd[8,9] + xd[9,8] - xd[8,2] + xd[1,8] + xd[3,8] - xd[8,4]
   + xd[10,8] - xd[8,6] + xd[2,8] + xd[6,8] + xd[4,8] - xd[8,1] - xd[8,10]
   - xd[8,3] + xd[0,8] - xd[8,5] + xd[5,8] - xd[8,7] + xd[7,8] = 0
 C5: xd[4,9] + xd[8,9] - xd[9,8] - xd[9,1] - xd[9,10] - xd[9,3] + xd[0,9]
   - xd[9,5] + xd[5,9] - xd[9,7] + xd[7,9] - xd[9,0] - xd[9,2] + xd[1,9]
   + xd[3,9] + xd[10,9] - xd[9,4] - xd[9,6] + xd[2,9] + xd[6,9] = 0
 C5: xd[5,10] - xd[10,6] + xd[7,10] + xd[9,10] + xd[1,10] + xd[3,10]
   - xd[10,8] - xd[10,1] - xd[10,3] - xd[10,5] + xd[2,10] + xd[6,10]
   + xd[4,10] + xd[8,10] - xd[10,7] - xd[10,0] - xd[10,9] - xd[10,2]
   + xd[0,10] - xd[10,4] = 0
 C6: 199 xd[4,0] + 875 xd[4,9] + 76 xd[5,1] + 573 xd[8,0] + 883 xd[5,10]
   + 1443 xd[8,9] + 1388 xd[10,6] + 1443 xd[9,8] + 228 xd[0,5]
   + 258 xd[6,2] + 356 xd[7,1] + 1266 xd[7,10] + 244 xd[4,2] + 260 xd[3,6]
   + 315 xd[5,3] + 377 xd[8,2] + 872 xd[9,1] + 101 xd[9,10] + 369 xd[0,7]
   + 244 xd[2,4] + 597 xd[1,8] + 472 xd[6,4] + 181 xd[7,3] + 376 xd[3,8]
   + 578 xd[8,4] + 1115 xd[9,3] + 980 xd[0,9] + 956 xd[1,10] + 408 xd[7,5]
   + 243 xd[3,1] + 1198 xd[3,10] + 408 xd[5,7] + 801 xd[9,5] + 197 xd[0,2]
   + 243 xd[1,3] + 228 xd[5,0] + 801 xd[5,9] + 1192 xd[9,7] + 1516 xd[10,8]
   + 76 xd[1,5] + 451 xd[6,1] + 369 xd[7,0] + 1192 xd[7,9] + 315 xd[3,5]
   + 315 xd[5,2] + 980 xd[9,0] + 956 xd[10,1] + 356 xd[1,7] + 258 xd[2,6]
   + 182 xd[7,2] + 181 xd[3,7] + 76 xd[5,4] + 472 xd[4,6] + 1116 xd[9,2]
   + 435 xd[8,6] + 1198 xd[10,3] + 159 xd[1,0] + 872 xd[1,9] + 377 xd[2,8]
   + 332 xd[7,4] + 435 xd[6,8] + 198 xd[3,0] + 1115 xd[3,9] + 527 xd[5,6]
   + 578 xd[4,8] + 883 xd[10,5] + 243 xd[1,2] + 199 xd[0,4] + 243 xd[2,1]
   + 1199 xd[2,10] + 1388 xd[6,10] + 2 xd[3,2] + 49 xd[4,1] + 956 xd[4,10]
   + 597 xd[8,1] + 1516 xd[8,10] + 1266 xd[10,7] + 49 xd[1,4] + 317 xd[0,6]
   + 2 xd[2,3] + 260 xd[6,3] + 243 xd[3,4] + 243 xd[4,3] + 376 xd[8,3]
   + 1070 xd[10,0] + 101 xd[10,9] + 451 xd[1,6] + 573 xd[0,8] + 315 xd[2,5]
   + 527 xd[6,5] + 76 xd[4,5] + 655 xd[8,5] + 1199 xd[10,2] + 875 xd[9,4]
   + 159 xd[0,1] + 1070 xd[0,10] + 182 xd[2,7] + 382 xd[6,7] + 382 xd[7,6]
   + 332 xd[4,7] + 655 xd[5,8] + 250 xd[8,7] + 956 xd[10,4] + 1297 xd[9,6]
   + 198 xd[0,3] + 197 xd[2,0] + 1116 xd[2,9] + 317 xd[6,0] + 1297 xd[6,9]
   + 250 xd[7,8] <= 30
 C7: 100010 xt[1,2] + 100010 xd[1,2] - y[1] + y[2] <= 100000
 C7: 100035 xt[1,3] + 100035 xd[1,3] - y[1] + y[3] <= 100000
 C7: 100003 xt[1,4] + 100003 xd[1,4] - y[1] + y[4] <= 100000
 C7: 100008 xt[1,5] + 100008 xd[1,5] - y[1] + y[5] <= 100000
 C7: 100024 xt[1,6] + 100024 xd[1,6] - y[1] + y[6] <= 100000
 C7: 100016 xt[1,7] + 100016 xd[1,7] - y[1] + y[7] <= 100000
 C7: 100008 xt[1,8] + 100008 xd[1,8] - y[1] + y[8] <= 100000
 C7: 100001 xt[1,9] + 100001 xd[1,9] - y[1] + y[9] <= 100000
 C7: 100002 xt[1,10] + 100002 xd[1,10] - y[1] + y[10] <= 100000
 C7: 100024 xt[2,1] + 100024 xd[2,1] + y[1] - y[2] <= 100000
 C7: 100035 xt[2,3] + 100035 xd[2,3] - y[2] + y[3] <= 100000
 C7: 100003 xt[2,4] + 100003 xd[2,4] - y[2] + y[4] <= 100000
 C7: 100008 xt[2,5] + 100008 xd[2,5] - y[2] + y[5] <= 100000
 C7: 100024 xt[2,6] + 100024 xd[2,6] - y[2] + y[6] <= 100000
 C7: 100016 xt[2,7] + 100016 xd[2,7] - y[2] + y[7] <= 100000
 C7: 100008 xt[2,8] + 100008 xd[2,8] - y[2] + y[8] <= 100000
 C7: 100001 xt[2,9] + 100001 xd[2,9] - y[2] + y[9] <= 100000
 C7: 100002 xt[2,10] + 100002 xd[2,10] - y[2] + y[10] <= 100000
 C7: 100024 xt[3,1] + 100024 xd[3,1] + y[1] - y[3] <= 100000
 C7: 100010 xt[3,2] + 100010 xd[3,2] + y[2] - y[3] <= 100000
 C7: 100003 xt[3,4] + 100003 xd[3,4] - y[3] + y[4] <= 100000
 C7: 100008 xt[3,5] + 100008 xd[3,5] - y[3] + y[5] <= 100000
 C7: 100024 xt[3,6] + 100024 xd[3,6] - y[3] + y[6] <= 100000
 C7: 100016 xt[3,7] + 100016 xd[3,7] - y[3] + y[7] <= 100000
 C7: 100008 xt[3,8] + 100008 xd[3,8] - y[3] + y[8] <= 100000
 C7: 100001 xt[3,9] + 100001 xd[3,9] - y[3] + y[9] <= 100000
 C7: 100002 xt[3,10] + 100002 xd[3,10] - y[3] + y[10] <= 100000
 C7: 100024 xt[4,1] + 100024 xd[4,1] + y[1] - y[4] <= 100000
 C7: 100010 xt[4,2] + 100010 xd[4,2] + y[2] - y[4] <= 100000
 C7: 100035 xt[4,3] + 100035 xd[4,3] + y[3] - y[4] <= 100000
 C7: 100008 xt[4,5] + 100008 xd[4,5] - y[4] + y[5] <= 100000
 C7: 100024 xt[4,6] + 100024 xd[4,6] - y[4] + y[6] <= 100000
 C7: 100016 xt[4,7] + 100016 xd[4,7] - y[4] + y[7] <= 100000
 C7: 100008 xt[4,8] + 100008 xd[4,8] - y[4] + y[8] <= 100000
 C7: 100001 xt[4,9] + 100001 xd[4,9] - y[4] + y[9] <= 100000
 C7: 100002 xt[4,10] + 100002 xd[4,10] - y[4] + y[10] <= 100000
 C7: 100024 xt[5,1] + 100024 xd[5,1] + y[1] - y[5] <= 100000
 C7: 100010 xt[5,2] + 100010 xd[5,2] + y[2] - y[5] <= 100000
 C7: 100035 xt[5,3] + 100035 xd[5,3] + y[3] - y[5] <= 100000
 C7: 100003 xt[5,4] + 100003 xd[5,4] + y[4] - y[5] <= 100000
 C7: 100024 xt[5,6] + 100024 xd[5,6] - y[5] + y[6] <= 100000
 C7: 100016 xt[5,7] + 100016 xd[5,7] - y[5] + y[7] <= 100000
 C7: 100008 xt[5,8] + 100008 xd[5,8] - y[5] + y[8] <= 100000
 C7: 100001 xt[5,9] + 100001 xd[5,9] - y[5] + y[9] <= 100000
 C7: 100002 xt[5,10] + 100002 xd[5,10] - y[5] + y[10] <= 100000
 C7: 100024 xt[6,1] + 100024 xd[6,1] + y[1] - y[6] <= 100000
 C7: 100010 xt[6,2] + 100010 xd[6,2] + y[2] - y[6] <= 100000
 C7: 100035 xt[6,3] + 100035 xd[6,3] + y[3] - y[6] <= 100000
 C7: 100003 xt[6,4] + 100003 xd[6,4] + y[4] - y[6] <= 100000
 C7: 100008 xt[6,5] + 100008 xd[6,5] + y[5] - y[6] <= 100000
 C7: 100016 xt[6,7] + 100016 xd[6,7] - y[6] + y[7] <= 100000
 C7: 100008 xt[6,8] + 100008 xd[6,8] - y[6] + y[8] <= 100000
 C7: 100001 xt[6,9] + 100001 xd[6,9] - y[6] + y[9] <= 100000
 C7: 100002 xt[6,10] + 100002 xd[6,10] - y[6] + y[10] <= 100000
 C7: 100024 xt[7,1] + 100024 xd[7,1] + y[1] - y[7] <= 100000
 C7: 100010 xt[7,2] + 100010 xd[7,2] + y[2] - y[7] <= 100000
 C7: 100035 xt[7,3] + 100035 xd[7,3] + y[3] - y[7] <= 100000
 C7: 100003 xt[7,4] + 100003 xd[7,4] + y[4] - y[7] <= 100000
 C7: 100008 xt[7,5] + 100008 xd[7,5] + y[5] - y[7] <= 100000
 C7: 100024 xt[7,6] + 100024 xd[7,6] + y[6] - y[7] <= 100000
 C7: 100008 xt[7,8] + 100008 xd[7,8] - y[7] + y[8] <= 100000
 C7: 100001 xt[7,9] + 100001 xd[7,9] - y[7] + y[9] <= 100000
 C7: 100002 xt[7,10] + 100002 xd[7,10] - y[7] + y[10] <= 100000
 C7: 100024 xt[8,1] + 100024 xd[8,1] + y[1] - y[8] <= 100000
 C7: 100010 xt[8,2] + 100010 xd[8,2] + y[2] - y[8] <= 100000
 C7: 100035 xt[8,3] + 100035 xd[8,3] + y[3] - y[8] <= 100000
 C7: 100003 xt[8,4] + 100003 xd[8,4] + y[4] - y[8] <= 100000
 C7: 100008 xt[8,5] + 100008 xd[8,5] + y[5] - y[8] <= 100000
 C7: 100024 xt[8,6] + 100024 xd[8,6] + y[6] - y[8] <= 100000
 C7: 100016 xt[8,7] + 100016 xd[8,7] + y[7] - y[8] <= 100000
 C7: 100001 xt[8,9] + 100001 xd[8,9] - y[8] + y[9] <= 100000
 C7: 100002 xt[8,10] + 100002 xd[8,10] - y[8] + y[10] <= 100000
 C7: 100024 xt[9,1] + 100024 xd[9,1] + y[1] - y[9] <= 100000
 C7: 100010 xt[9,2] + 100010 xd[9,2] + y[2] - y[9] <= 100000
 C7: 100035 xt[9,3] + 100035 xd[9,3] + y[3] - y[9] <= 100000
 C7: 100003 xt[9,4] + 100003 xd[9,4] + y[4] - y[9] <= 100000
 C7: 100008 xt[9,5] + 100008 xd[9,5] + y[5] - y[9] <= 100000
 C7: 100024 xt[9,6] + 100024 xd[9,6] + y[6] - y[9] <= 100000
 C7: 100016 xt[9,7] + 100016 xd[9,7] + y[7] - y[9] <= 100000
 C7: 100008 xt[9,8] + 100008 xd[9,8] + y[8] - y[9] <= 100000
 C7: 100002 xt[9,10] + 100002 xd[9,10] - y[9] + y[10] <= 100000
 C7: 100024 xt[10,1] + 100024 xd[10,1] + y[1] - y[10] <= 100000
 C7: 100010 xt[10,2] + 100010 xd[10,2] + y[2] - y[10] <= 100000
 C7: 100035 xt[10,3] + 100035 xd[10,3] + y[3] - y[10] <= 100000
 C7: 100003 xt[10,4] + 100003 xd[10,4] + y[4] - y[10] <= 100000
 C7: 100008 xt[10,5] + 100008 xd[10,5] + y[5] - y[10] <= 100000
 C7: 100024 xt[10,6] + 100024 xd[10,6] + y[6] - y[10] <= 100000
 C7: 100016 xt[10,7] + 100016 xd[10,7] + y[7] - y[10] <= 100000
 C7: 100008 xt[10,8] + 100008 xd[10,8] + y[8] - y[10] <= 100000
 C7: 100001 xt[10,9] + 100001 xd[10,9] + y[9] - y[10] <= 100000
 C9: - 16 xt[5,1] - 16 xt[7,1] - 16 xt[9,1] - 16 xt[3,1] - 16 xt[6,1]
   - 16 xt[10,1] - 16 xt[2,1] - 16 xt[4,1] - 16 xt[8,1] - 16 xt[0,1]
   + 14 xd[5,1] + 14 xd[7,1] + 14 xd[9,1] + 14 xd[3,1] + 14 xd[6,1]
   + 14 xd[10,1] + 14 xd[2,1] + 14 xd[4,1] + 14 xd[8,1] + 14 xd[0,1] + y[1]
   <= 0
 C9: - 30 xt[6,2] - 30 xt[4,2] - 30 xt[8,2] - 30 xt[0,2] - 30 xt[5,2]
   - 30 xt[7,2] - 30 xt[9,2] - 30 xt[1,2] - 30 xt[3,2] - 30 xt[10,2] + y[2]
   <= 0
 C9: - 5 xt[5,3] - 5 xt[7,3] - 5 xt[9,3] - 5 xt[1,3] - 5 xt[10,3]
   - 5 xt[2,3] - 5 xt[6,3] - 5 xt[4,3] - 5 xt[8,3] - 5 xt[0,3] + 25 xd[5,3]
   + 25 xd[7,3] + 25 xd[9,3] + 25 xd[1,3] + 25 xd[10,3] + 25 xd[2,3]
   + 25 xd[6,3] + 25 xd[4,3] + 25 xd[8,3] + 25 xd[0,3] + y[3] <= 0
 C9: - 37 xt[2,4] - 37 xt[6,4] - 37 xt[8,4] - 37 xt[5,4] - 37 xt[7,4]
   - 37 xt[0,4] - 37 xt[1,4] - 37 xt[3,4] - 37 xt[9,4] - 37 xt[10,4]
   - 7 xd[2,4] - 7 xd[6,4] - 7 xd[8,4] - 7 xd[5,4] - 7 xd[7,4] - 7 xd[0,4]
   - 7 xd[1,4] - 7 xd[3,4] - 7 xd[9,4] - 7 xd[10,4] + y[4] <= 0
 C9: - 32 xt[0,5] - 32 xt[7,5] - 32 xt[9,5] - 32 xt[1,5] - 32 xt[3,5]
   - 32 xt[10,5] - 32 xt[2,5] - 32 xt[6,5] - 32 xt[4,5] - 32 xt[8,5]
   - 2 xd[0,5] - 2 xd[7,5] - 2 xd[9,5] - 2 xd[1,5] - 2 xd[3,5] - 2 xd[10,5]
   - 2 xd[2,5] - 2 xd[6,5] - 2 xd[4,5] - 2 xd[8,5] + y[5] <= 0
 C9: - 16 xt[10,6] - 16 xt[3,6] - 16 xt[2,6] - 16 xt[4,6] - 16 xt[8,6]
   - 16 xt[5,6] - 16 xt[0,6] - 16 xt[1,6] - 16 xt[7,6] - 16 xt[9,6]
   + 14 xd[10,6] + 14 xd[3,6] + 14 xd[2,6] + 14 xd[4,6] + 14 xd[8,6]
   + 14 xd[5,6] + 14 xd[0,6] + 14 xd[1,6] + 14 xd[7,6] + 14 xd[9,6] + y[6]
   <= 0
 C9: - 24 xt[0,7] - 24 xt[5,7] - 24 xt[9,7] - 24 xt[1,7] - 24 xt[3,7]
   - 24 xt[10,7] - 24 xt[2,7] - 24 xt[6,7] - 24 xt[4,7] - 24 xt[8,7]
   + 6 xd[0,7] + 6 xd[5,7] + 6 xd[9,7] + 6 xd[1,7] + 6 xd[3,7] + 6 xd[10,7]
   + 6 xd[2,7] + 6 xd[6,7] + 6 xd[4,7] + 6 xd[8,7] + y[7] <= 0
 C9: - 32 xt[9,8] - 32 xt[1,8] - 32 xt[3,8] - 32 xt[10,8] - 32 xt[2,8]
   - 32 xt[6,8] - 32 xt[4,8] - 32 xt[0,8] - 32 xt[5,8] - 32 xt[7,8]
   - 2 xd[9,8] - 2 xd[1,8] - 2 xd[3,8] - 2 xd[10,8] - 2 xd[2,8] - 2 xd[6,8]
   - 2 xd[4,8] - 2 xd[0,8] - 2 xd[5,8] - 2 xd[7,8] + y[8] <= 0
 C9: - 39 xt[4,9] - 39 xt[8,9] - 39 xt[0,9] - 39 xt[5,9] - 39 xt[7,9]
   - 39 xt[1,9] - 39 xt[3,9] - 39 xt[10,9] - 39 xt[2,9] - 39 xt[6,9]
   - 9 xd[4,9] - 9 xd[8,9] - 9 xd[0,9] - 9 xd[5,9] - 9 xd[7,9] - 9 xd[1,9]
   - 9 xd[3,9] - 9 xd[10,9] - 9 xd[2,9] - 9 xd[6,9] + y[9] <= 0
 C9: - 38 xt[5,10] - 38 xt[7,10] - 38 xt[9,10] - 38 xt[1,10] - 38 xt[3,10]
   - 38 xt[2,10] - 38 xt[6,10] - 38 xt[4,10] - 38 xt[8,10] - 38 xt[0,10]
   - 8 xd[5,10] - 8 xd[7,10] - 8 xd[9,10] - 8 xd[1,10] - 8 xd[3,10]
   - 8 xd[2,10] - 8 xd[6,10] - 8 xd[4,10] - 8 xd[8,10] - 8 xd[0,10] + y[10]
   <= 0
 C12: - 990 w[1] >= -976
 C13: - 10 w[1] <= 14
 C14: xd[5,1] + xd[7,1] + xd[9,1] + xd[3,1] + xd[6,1] + xd[10,1] + xd[2,1]
   + xd[4,1] + xd[8,1] + xd[0,1] - 10 w[1] <= 0
 C12: - 990 w[2] >= -990
 C13: - 10 w[2] <= 0
 C14: xd[6,2] + xd[4,2] + xd[8,2] + xd[0,2] + xd[5,2] + xd[7,2] + xd[9,2]
   + xd[1,2] + xd[3,2] + xd[10,2] - 10 w[2] <= 0
 C12: - 990 w[3] >= -965
 C13: - 10 w[3] <= 25
 C14: xd[5,3] + xd[7,3] + xd[9,3] + xd[1,3] + xd[10,3] + xd[2,3] + xd[6,3]
   + xd[4,3] + xd[8,3] + xd[0,3] - 10 w[3] <= 0
 C12: - 990 w[4] >= -997
 C13: - 10 w[4] <= -7
 C14: xd[2,4] + xd[6,4] + xd[8,4] + xd[5,4] + xd[7,4] + xd[0,4] + xd[1,4]
   + xd[3,4] + xd[9,4] + xd[10,4] - 10 w[4] <= 0
 C12: - 990 w[5] >= -992
 C13: - 10 w[5] <= -2
 C14: xd[0,5] + xd[7,5] + xd[9,5] + xd[1,5] + xd[3,5] + xd[10,5] + xd[2,5]
   + xd[6,5] + xd[4,5] + xd[8,5] - 10 w[5] <= 0
 C12: - 990 w[6] >= -976
 C13: - 10 w[6] <= 14
 C14: xd[10,6] + xd[3,6] + xd[2,6] + xd[4,6] + xd[8,6] + xd[5,6] + xd[0,6]
   + xd[1,6] + xd[7,6] + xd[9,6] - 10 w[6] <= 0
 C12: - 990 w[7] >= -984
 C13: - 10 w[7] <= 6
 C14: xd[0,7] + xd[5,7] + xd[9,7] + xd[1,7] + xd[3,7] + xd[10,7] + xd[2,7]
   + xd[6,7] + xd[4,7] + xd[8,7] - 10 w[7] <= 0
 C12: - 990 w[8] >= -992
 C13: - 10 w[8] <= -2
 C14: xd[9,8] + xd[1,8] + xd[3,8] + xd[10,8] + xd[2,8] + xd[6,8] + xd[4,8]
   + xd[0,8] + xd[5,8] + xd[7,8] - 10 w[8] <= 0
 C12: - 990 w[9] >= -999
 C13: - 10 w[9] <= -9
 C14: xd[4,9] + xd[8,9] + xd[0,9] + xd[5,9] + xd[7,9] + xd[1,9] + xd[3,9]
   + xd[10,9] + xd[2,9] + xd[6,9] - 10 w[9] <= 0
 C12: - 990 w[10] >= -998
 C13: - 10 w[10] <= -8
 C14: xd[5,10] + xd[7,10] + xd[9,10] + xd[1,10] + xd[3,10] + xd[2,10]
   + xd[6,10] + xd[4,10] + xd[8,10] + xd[0,10] - 10 w[10] <= 0
Bounds
 y[1] <= 40
 y[2] <= 40
 y[3] <= 40
 y[4] <= 40
 y[5] <= 40
 y[6] <= 40
 y[7] <= 40
 y[8] <= 40
 y[9] <= 40
 y[10] <= 40
Binaries
 xt[4,0] xt[4,9] xt[5,1] xt[8,0] xt[5,10] xt[8,9] xt[10,6] xt[9,8] xt[0,5]
 xt[6,2] xt[7,1] xt[7,10] xt[4,2] xt[3,6] xt[5,3] xt[8,2] xt[9,1] xt[9,10]
 xt[0,7] xt[2,4] xt[1,8] xt[6,4] xt[7,3] xt[3,8] xt[8,4] xt[9,3] xt[0,9]
 xt[1,10] xt[7,5] xt[3,1] xt[3,10] xt[5,7] xt[9,5] xt[0,2] xt[1,3] xt[5,0]
 xt[5,9] xt[9,7] xt[10,8] xt[1,5] xt[6,1] xt[7,0] xt[7,9] xt[3,5] xt[5,2]
 xt[9,0] xt[10,1] xt[1,7] xt[2,6] xt[7,2] xt[3,7] xt[5,4] xt[4,6] xt[9,2]
 xt[8,6] xt[10,3] xt[1,0] xt[1,9] xt[2,8] xt[7,4] xt[6,8] xt[3,0] xt[3,9]
 xt[5,6] xt[4,8] xt[10,5] xt[1,2] xt[0,4] xt[2,1] xt[2,10] xt[6,10] xt[3,2]
 xt[4,1] xt[4,10] xt[8,1] xt[8,10] xt[10,7] xt[1,4] xt[0,6] xt[2,3] xt[6,3]
 xt[3,4] xt[4,3] xt[8,3] xt[10,0] xt[10,9] xt[1,6] xt[0,8] xt[2,5] xt[6,5]
 xt[4,5] xt[8,5] xt[10,2] xt[9,4] xt[0,1] xt[0,10] xt[2,7] xt[6,7] xt[7,6]
 xt[4,7] xt[5,8] xt[8,7] xt[10,4] xt[9,6] xt[0,3] xt[2,0] xt[2,9] xt[6,0]
 xt[6,9] xt[7,8] xd[4,0] xd[4,9] xd[5,1] xd[8,0] xd[5,10] xd[8,9] xd[10,6]
 xd[9,8] xd[0,5] xd[6,2] xd[7,1] xd[7,10] xd[4,2] xd[3,6] xd[5,3] xd[8,2]
 xd[9,1] xd[9,10] xd[0,7] xd[2,4] xd[1,8] xd[6,4] xd[7,3] xd[3,8] xd[8,4]
 xd[9,3] xd[0,9] xd[1,10] xd[7,5] xd[3,1] xd[3,10] xd[5,7] xd[9,5] xd[0,2]
 xd[1,3] xd[5,0] xd[5,9] xd[9,7] xd[10,8] xd[1,5] xd[6,1] xd[7,0] xd[7,9]
 xd[3,5] xd[5,2] xd[9,0] xd[10,1] xd[1,7] xd[2,6] xd[7,2] xd[3,7] xd[5,4]
 xd[4,6] xd[9,2] xd[8,6] xd[10,3] xd[1,0] xd[1,9] xd[2,8] xd[7,4] xd[6,8]
 xd[3,0] xd[3,9] xd[5,6] xd[4,8] xd[10,5] xd[1,2] xd[0,4] xd[2,1] xd[2,10]
 xd[6,10] xd[3,2] xd[4,1] xd[4,10] xd[8,1] xd[8,10] xd[10,7] xd[1,4]
 xd[0,6] xd[2,3] xd[6,3] xd[3,4] xd[4,3] xd[8,3] xd[10,0] xd[10,9] xd[1,6]
 xd[0,8] xd[2,5] xd[6,5] xd[4,5] xd[8,5] xd[10,2] xd[9,4] xd[0,1] xd[0,10]
 xd[2,7] xd[6,7] xd[7,6] xd[4,7] xd[5,8] xd[8,7] xd[10,4] xd[9,6] xd[0,3]
 xd[2,0] xd[2,9] xd[6,0] xd[6,9] xd[7,8] w[1] w[2] w[3] w[4] w[5] w[6] w[7]
 w[8] w[9] w[10]
End
